p tw 120 180
1 2
1 33
1 55
2 44
2 66
33 44
33 77
44 88
55 99
55 25
66 110
66 26
77 3
77 27
88 14
88 28
99 3
99 29
110 14
110 30
3 31
14 32
25 29
25 34
26 30
26 35
27 31
27 36
28 32
28 37
29 42
30 43
31 45
32 46
34 38
34 47
35 39
35 48
36 40
36 49
37 41
37 50
38 39
38 56
39 57
40 41
40 58
41 59
42 51
42 60
43 52
43 61
45 53
45 62
46 54
46 63
47 51
47 56
48 52
48 57
49 53
49 58
50 54
50 59
51 69
52 70
53 75
54 76
56 64
57 65
58 67
59 68
60 69
60 71
61 70
61 72
62 73
62 75
63 74
63 76
64 65
64 86
65 87
67 68
67 89
68 90
69 78
70 79
71 73
71 80
72 74
72 81
73 82
74 83
75 84
76 85
78 91
78 100
79 92
79 101
80 82
80 91
81 83
81 92
82 93
83 94
84 93
84 102
85 94
85 103
86 87
86 95
87 96
89 90
89 97
90 98
91 108
92 109
93 111
94 112
95 104
95 113
96 105
96 114
97 106
97 115
98 107
98 116
100 104
100 108
101 105
101 109
102 106
102 111
103 107
103 112
104 117
105 118
106 119
107 120
108 4
109 5
111 6
112 7
113 114
113 117
114 118
115 116
115 119
116 120
117 8
118 9
119 10
120 11
4 8
4 12
5 9
5 13
6 10
6 15
7 11
7 16
8 17
9 18
10 19
11 20
12 15
12 17
13 16
13 18
15 19
16 20
17 21
18 22
19 23
20 24
21 22
21 23
22 24
23 24
